NAME : single
TYPE : ATSP
DIMENSION : 6
EDGE_WEIGHT_TYPE : EXPLICIT
EDGE_WEIGHT_FORMAT : FULL_MATRIX
EDGE_WEIGHT_SECTION
0 50311 50314 957 171 200 
0 0 193 273 50000 50000 
0 193 0 268 50000 50000 
0 273 268 0 50000 50000 
0 50000 50000 50000 0 73 
0 50000 50000 50000 73 0 
EOF